\Problem name: compact

Minimize
OBJROW: C
Subject To
ord(0,1):  x(0,1) - x(0,2) >= 1
ord(0,2):  x(0,0) - x(0,1) >= 10
ord(1,1):  x(1,0) - x(1,1) >= 5
ord(1,2):  - x(1,0) + x(1,2) >= 6
ord(2,1):  - x(2,0) + x(2,1) >= 3
ord(2,2):  - x(2,1) + x(2,2) >= 8
ord(3,1):  x(3,1) - x(3,2) >= 5
ord(3,2):  x(3,0) - x(3,1) >= 10
triangle2(0,1,0):  y(0,1,0) + y(1,0,0) = 1
triangle2(0,1,1):  y(0,1,1) + y(1,0,1) = 1
triangle2(0,1,2):  y(0,1,2) + y(1,0,2) = 1
triangle2(0,2,0):  y(0,2,0) + y(2,0,0) = 1
triangle2(0,2,1):  y(0,2,1) + y(2,0,1) = 1
triangle2(0,2,2):  y(0,2,2) + y(2,0,2) = 1
triangle2(0,3,0):  y(0,3,0) + y(3,0,0) = 1
triangle2(0,3,1):  y(0,3,1) + y(3,0,1) = 1
triangle2(0,3,2):  y(0,3,2) + y(3,0,2) = 1
triangle2(1,2,0):  y(1,2,0) + y(2,1,0) = 1
triangle2(1,2,1):  y(1,2,1) + y(2,1,1) = 1
triangle2(1,2,2):  y(1,2,2) + y(2,1,2) = 1
triangle2(1,3,0):  y(1,3,0) + y(3,1,0) = 1
triangle2(1,3,1):  y(1,3,1) + y(3,1,1) = 1
triangle2(1,3,2):  y(1,3,2) + y(3,1,2) = 1
triangle2(2,3,0):  y(2,3,0) + y(3,2,0) = 1
triangle2(2,3,1):  y(2,3,1) + y(3,2,1) = 1
triangle2(2,3,2):  y(2,3,2) + y(3,2,2) = 1
MCLinV(0,1,0):  x(0,0) - v(0,1,0) - x(1,0) = 6
MCLinV(1,0,0):  - x(0,0) - v(1,0,0) + x(1,0) = 8
MCLin1(0,1,0):  u(0,1,0) >= -0
MCLin2(0,1,0):  -54 y(1,0,0) - u(0,1,0) <= -0
MCLin3(0,1,0):  56 y(1,0,0) + v(0,1,0) - u(0,1,0) <= 56
MCLin4(0,1,0):  56 y(1,0,0) - u(0,1,0) >= -0
MCLin5(0,1,0):  -54 y(1,0,0) + v(0,1,0) - u(0,1,0) >= -54
MCLin6(1,0,0):  u(1,0,0) >= -0
MCLin7(1,0,0):  -70 y(0,1,0) - u(1,0,0) <= -0
MCLin8(1,0,0):  40 y(0,1,0) + v(1,0,0) - u(1,0,0) <= 40
MCLin9(1,0,0):  40 y(0,1,0) - u(1,0,0) >= -0
MCLin10(1,0,0):  -70 y(0,1,0) + v(1,0,0) - u(1,0,0) >= -70
MCLinV(0,1,1):  x(0,1) - v(0,1,1) - x(1,1) = 5
MCLinV(1,0,1):  - x(0,1) - v(1,0,1) + x(1,1) = 10
MCLin1(0,1,1):  u(0,1,1) >= -0
MCLin2(0,1,1):  -58 y(1,0,1) - u(0,1,1) <= -0
MCLin3(0,1,1):  52 y(1,0,1) + v(0,1,1) - u(0,1,1) <= 52
MCLin4(0,1,1):  52 y(1,0,1) - u(0,1,1) >= -0
MCLin5(0,1,1):  -58 y(1,0,1) + v(0,1,1) - u(0,1,1) >= -58
MCLin6(1,0,1):  u(1,0,1) >= -0
MCLin7(1,0,1):  -67 y(0,1,1) - u(1,0,1) <= -0
MCLin8(1,0,1):  43 y(0,1,1) + v(1,0,1) - u(1,0,1) <= 43
MCLin9(1,0,1):  43 y(0,1,1) - u(1,0,1) >= -0
MCLin10(1,0,1):  -67 y(0,1,1) + v(1,0,1) - u(1,0,1) >= -67
MCLinV(0,1,2):  x(0,2) - v(0,1,2) - x(1,2) = 10
MCLinV(1,0,2):  - x(0,2) - v(1,0,2) + x(1,2) = 1
MCLin1(0,1,2):  u(0,1,2) >= -0
MCLin2(0,1,2):  -75 y(1,0,2) - u(0,1,2) <= -0
MCLin3(0,1,2):  35 y(1,0,2) + v(0,1,2) - u(0,1,2) <= 35
MCLin4(0,1,2):  35 y(1,0,2) - u(0,1,2) >= -0
MCLin5(0,1,2):  -75 y(1,0,2) + v(0,1,2) - u(0,1,2) >= -75
MCLin6(1,0,2):  u(1,0,2) >= -0
MCLin7(1,0,2):  -46 y(0,1,2) - u(1,0,2) <= -0
MCLin8(1,0,2):  64 y(0,1,2) + v(1,0,2) - u(1,0,2) <= 64
MCLin9(1,0,2):  64 y(0,1,2) - u(1,0,2) >= -0
MCLin10(1,0,2):  -46 y(0,1,2) + v(1,0,2) - u(1,0,2) >= -46
MCLinV(0,2,0):  x(0,0) - v(0,2,0) - x(2,0) = 3
MCLinV(2,0,0):  - x(0,0) - v(2,0,0) + x(2,0) = 8
MCLin1(0,2,0):  u(0,2,0) >= -0
MCLin2(0,2,0):  -48 y(2,0,0) - u(0,2,0) <= -0
MCLin3(0,2,0):  64 y(2,0,0) + v(0,2,0) - u(0,2,0) <= 64
MCLin4(0,2,0):  64 y(2,0,0) - u(0,2,0) >= -0
MCLin5(0,2,0):  -48 y(2,0,0) + v(0,2,0) - u(0,2,0) >= -48
MCLin6(2,0,0):  u(2,0,0) >= -0
MCLin7(2,0,0):  -75 y(0,2,0) - u(2,0,0) <= -0
MCLin8(2,0,0):  37 y(0,2,0) + v(2,0,0) - u(2,0,0) <= 37
MCLin9(2,0,0):  37 y(0,2,0) - u(2,0,0) >= -0
MCLin10(2,0,0):  -75 y(0,2,0) + v(2,0,0) - u(2,0,0) >= -75
MCLinV(0,2,1):  x(0,1) - v(0,2,1) - x(2,1) = 8
MCLinV(2,0,1):  - x(0,1) - v(2,0,1) + x(2,1) = 10
MCLin1(0,2,1):  u(0,2,1) >= -0
MCLin2(0,2,1):  -66 y(2,0,1) - u(0,2,1) <= -0
MCLin3(0,2,1):  46 y(2,0,1) + v(0,2,1) - u(0,2,1) <= 46
MCLin4(0,2,1):  46 y(2,0,1) - u(0,2,1) >= -0
MCLin5(0,2,1):  -66 y(2,0,1) + v(0,2,1) - u(0,2,1) >= -66
MCLin6(2,0,1):  u(2,0,1) >= -0
MCLin7(2,0,1):  -64 y(0,2,1) - u(2,0,1) <= -0
MCLin8(2,0,1):  48 y(0,2,1) + v(2,0,1) - u(2,0,1) <= 48
MCLin9(2,0,1):  48 y(0,2,1) - u(2,0,1) >= -0
MCLin10(2,0,1):  -64 y(0,2,1) + v(2,0,1) - u(2,0,1) >= -64
MCLinV(0,2,2):  x(0,2) - v(0,2,2) - x(2,2) = 8
MCLinV(2,0,2):  - x(0,2) - v(2,0,2) + x(2,2) = 1
MCLin1(0,2,2):  u(0,2,2) >= -0
MCLin2(0,2,2):  -75 y(2,0,2) - u(0,2,2) <= -0
MCLin3(0,2,2):  37 y(2,0,2) + v(0,2,2) - u(0,2,2) <= 37
MCLin4(0,2,2):  37 y(2,0,2) - u(0,2,2) >= -0
MCLin5(0,2,2):  -75 y(2,0,2) + v(0,2,2) - u(0,2,2) >= -75
MCLin6(2,0,2):  u(2,0,2) >= -0
MCLin7(2,0,2):  -46 y(0,2,2) - u(2,0,2) <= -0
MCLin8(2,0,2):  66 y(0,2,2) + v(2,0,2) - u(2,0,2) <= 66
MCLin9(2,0,2):  66 y(0,2,2) - u(2,0,2) >= -0
MCLin10(2,0,2):  -46 y(0,2,2) + v(2,0,2) - u(2,0,2) >= -46
MCLinV(0,3,0):  x(0,0) - v(0,3,0) - x(3,0) = 1
MCLinV(3,0,0):  - x(0,0) - v(3,0,0) + x(3,0) = 8
MCLin1(0,3,0):  u(0,3,0) >= -0
MCLin2(0,3,0):  -64 y(3,0,0) - u(0,3,0) <= -0
MCLin3(0,3,0):  51 y(3,0,0) + v(0,3,0) - u(0,3,0) <= 51
MCLin4(0,3,0):  51 y(3,0,0) - u(0,3,0) >= -0
MCLin5(0,3,0):  -64 y(3,0,0) + v(0,3,0) - u(0,3,0) >= -64
MCLin6(3,0,0):  u(3,0,0) >= -0
MCLin7(3,0,0):  -60 y(0,3,0) - u(3,0,0) <= -0
MCLin8(3,0,0):  55 y(0,3,0) + v(3,0,0) - u(3,0,0) <= 55
MCLin9(3,0,0):  55 y(0,3,0) - u(3,0,0) >= -0
MCLin10(3,0,0):  -60 y(0,3,0) + v(3,0,0) - u(3,0,0) >= -60
MCLinV(0,3,1):  x(0,1) - v(0,3,1) - x(3,1) = 10
MCLinV(3,0,1):  - x(0,1) - v(3,0,1) + x(3,1) = 10
MCLin1(0,3,1):  u(0,3,1) >= -0
MCLin2(0,3,1):  -73 y(3,0,1) - u(0,3,1) <= -0
MCLin3(0,3,1):  42 y(3,0,1) + v(0,3,1) - u(0,3,1) <= 42
MCLin4(0,3,1):  42 y(3,0,1) - u(0,3,1) >= -0
MCLin5(0,3,1):  -73 y(3,0,1) + v(0,3,1) - u(0,3,1) >= -73
MCLin6(3,0,1):  u(3,0,1) >= -0
MCLin7(3,0,1):  -62 y(0,3,1) - u(3,0,1) <= -0
MCLin8(3,0,1):  53 y(0,3,1) + v(3,0,1) - u(3,0,1) <= 53
MCLin9(3,0,1):  53 y(0,3,1) - u(3,0,1) >= -0
MCLin10(3,0,1):  -62 y(0,3,1) + v(3,0,1) - u(3,0,1) >= -62
MCLinV(0,3,2):  x(0,2) - v(0,3,2) - x(3,2) = 5
MCLinV(3,0,2):  - x(0,2) - v(3,0,2) + x(3,2) = 1
MCLin1(0,3,2):  u(0,3,2) >= -0
MCLin2(0,3,2):  -64 y(3,0,2) - u(0,3,2) <= -0
MCLin3(0,3,2):  51 y(3,0,2) + v(0,3,2) - u(0,3,2) <= 51
MCLin4(0,3,2):  51 y(3,0,2) - u(0,3,2) >= -0
MCLin5(0,3,2):  -64 y(3,0,2) + v(0,3,2) - u(0,3,2) >= -64
MCLin6(3,0,2):  u(3,0,2) >= -0
MCLin7(3,0,2):  -57 y(0,3,2) - u(3,0,2) <= -0
MCLin8(3,0,2):  58 y(0,3,2) + v(3,0,2) - u(3,0,2) <= 58
MCLin9(3,0,2):  58 y(0,3,2) - u(3,0,2) >= -0
MCLin10(3,0,2):  -57 y(0,3,2) + v(3,0,2) - u(3,0,2) >= -57
MCLinV(1,2,0):  x(1,0) - v(1,2,0) - x(2,0) = 3
MCLinV(2,1,0):  - x(1,0) - v(2,1,0) + x(2,0) = 6
MCLin1(1,2,0):  u(1,2,0) >= -0
MCLin2(1,2,0):  -54 y(2,1,0) - u(1,2,0) <= -0
MCLin3(1,2,0):  56 y(2,1,0) + v(1,2,0) - u(1,2,0) <= 56
MCLin4(1,2,0):  56 y(2,1,0) - u(1,2,0) >= -0
MCLin5(1,2,0):  -54 y(2,1,0) + v(1,2,0) - u(1,2,0) >= -54
MCLin6(2,1,0):  u(2,1,0) >= -0
MCLin7(2,1,0):  -65 y(1,2,0) - u(2,1,0) <= -0
MCLin8(2,1,0):  45 y(1,2,0) + v(2,1,0) - u(2,1,0) <= 45
MCLin9(2,1,0):  45 y(1,2,0) - u(2,1,0) >= -0
MCLin10(2,1,0):  -65 y(1,2,0) + v(2,1,0) - u(2,1,0) >= -65
MCLinV(1,2,1):  x(1,1) - v(1,2,1) - x(2,1) = 8
MCLinV(2,1,1):  - x(1,1) - v(2,1,1) + x(2,1) = 5
MCLin1(1,2,1):  u(1,2,1) >= -0
MCLin2(1,2,1):  -67 y(2,1,1) - u(1,2,1) <= -0
MCLin3(1,2,1):  43 y(2,1,1) + v(1,2,1) - u(1,2,1) <= 43
MCLin4(1,2,1):  43 y(2,1,1) - u(1,2,1) >= -0
MCLin5(1,2,1):  -67 y(2,1,1) + v(1,2,1) - u(1,2,1) >= -67
MCLin6(2,1,1):  u(2,1,1) >= -0
MCLin7(2,1,1):  -56 y(1,2,1) - u(2,1,1) <= -0
MCLin8(2,1,1):  54 y(1,2,1) + v(2,1,1) - u(2,1,1) <= 54
MCLin9(2,1,1):  54 y(1,2,1) - u(2,1,1) >= -0
MCLin10(2,1,1):  -56 y(1,2,1) + v(2,1,1) - u(2,1,1) >= -56
MCLinV(1,2,2):  x(1,2) - v(1,2,2) - x(2,2) = 8
MCLinV(2,1,2):  - x(1,2) - v(2,1,2) + x(2,2) = 10
MCLin1(1,2,2):  u(1,2,2) >= -0
MCLin2(1,2,2):  -64 y(2,1,2) - u(1,2,2) <= -0
MCLin3(1,2,2):  46 y(2,1,2) + v(1,2,2) - u(1,2,2) <= 46
MCLin4(1,2,2):  46 y(2,1,2) - u(1,2,2) >= -0
MCLin5(1,2,2):  -64 y(2,1,2) + v(1,2,2) - u(1,2,2) >= -64
MCLin6(2,1,2):  u(2,1,2) >= -0
MCLin7(2,1,2):  -64 y(1,2,2) - u(2,1,2) <= -0
MCLin8(2,1,2):  46 y(1,2,2) + v(2,1,2) - u(2,1,2) <= 46
MCLin9(2,1,2):  46 y(1,2,2) - u(2,1,2) >= -0
MCLin10(2,1,2):  -64 y(1,2,2) + v(2,1,2) - u(2,1,2) >= -64
MCLinV(1,3,0):  x(1,0) - v(1,3,0) - x(3,0) = 1
MCLinV(3,1,0):  - x(1,0) - v(3,1,0) + x(3,0) = 6
MCLin1(1,3,0):  u(1,3,0) >= -0
MCLin2(1,3,0):  -70 y(3,1,0) - u(1,3,0) <= -0
MCLin3(1,3,0):  43 y(3,1,0) + v(1,3,0) - u(1,3,0) <= 43
MCLin4(1,3,0):  43 y(3,1,0) - u(1,3,0) >= -0
MCLin5(1,3,0):  -70 y(3,1,0) + v(1,3,0) - u(1,3,0) >= -70
MCLin6(3,1,0):  u(3,1,0) >= -0
MCLin7(3,1,0):  -50 y(1,3,0) - u(3,1,0) <= -0
MCLin8(3,1,0):  63 y(1,3,0) + v(3,1,0) - u(3,1,0) <= 63
MCLin9(3,1,0):  63 y(1,3,0) - u(3,1,0) >= -0
MCLin10(3,1,0):  -50 y(1,3,0) + v(3,1,0) - u(3,1,0) >= -50
MCLinV(1,3,1):  x(1,1) - v(1,3,1) - x(3,1) = 10
MCLinV(3,1,1):  - x(1,1) - v(3,1,1) + x(3,1) = 5
MCLin1(1,3,1):  u(1,3,1) >= -0
MCLin2(1,3,1):  -74 y(3,1,1) - u(1,3,1) <= -0
MCLin3(1,3,1):  39 y(3,1,1) + v(1,3,1) - u(1,3,1) <= 39
MCLin4(1,3,1):  39 y(3,1,1) - u(1,3,1) >= -0
MCLin5(1,3,1):  -74 y(3,1,1) + v(1,3,1) - u(1,3,1) >= -74
MCLin6(3,1,1):  u(3,1,1) >= -0
MCLin7(3,1,1):  -54 y(1,3,1) - u(3,1,1) <= -0
MCLin8(3,1,1):  59 y(1,3,1) + v(3,1,1) - u(3,1,1) <= 59
MCLin9(3,1,1):  59 y(1,3,1) - u(3,1,1) >= -0
MCLin10(3,1,1):  -54 y(1,3,1) + v(3,1,1) - u(3,1,1) >= -54
MCLinV(1,3,2):  x(1,2) - v(1,3,2) - x(3,2) = 5
MCLinV(3,1,2):  - x(1,2) - v(3,1,2) + x(3,2) = 10
MCLin1(1,3,2):  u(1,3,2) >= -0
MCLin2(1,3,2):  -53 y(3,1,2) - u(1,3,2) <= -0
MCLin3(1,3,2):  60 y(3,1,2) + v(1,3,2) - u(1,3,2) <= 60
MCLin4(1,3,2):  60 y(3,1,2) - u(1,3,2) >= -0
MCLin5(1,3,2):  -53 y(3,1,2) + v(1,3,2) - u(1,3,2) >= -53
MCLin6(3,1,2):  u(3,1,2) >= -0
MCLin7(3,1,2):  -75 y(1,3,2) - u(3,1,2) <= -0
MCLin8(3,1,2):  38 y(1,3,2) + v(3,1,2) - u(3,1,2) <= 38
MCLin9(3,1,2):  38 y(1,3,2) - u(3,1,2) >= -0
MCLin10(3,1,2):  -75 y(1,3,2) + v(3,1,2) - u(3,1,2) >= -75
MCLinV(2,3,0):  x(2,0) - v(2,3,0) - x(3,0) = 1
MCLinV(3,2,0):  - x(2,0) - v(3,2,0) + x(3,0) = 3
MCLin1(2,3,0):  u(2,3,0) >= -0
MCLin2(2,3,0):  -75 y(3,2,0) - u(2,3,0) <= -0
MCLin3(2,3,0):  40 y(3,2,0) + v(2,3,0) - u(2,3,0) <= 40
MCLin4(2,3,0):  40 y(3,2,0) - u(2,3,0) >= -0
MCLin5(2,3,0):  -75 y(3,2,0) + v(2,3,0) - u(2,3,0) >= -75
MCLin6(3,2,0):  u(3,2,0) >= -0
MCLin7(3,2,0):  -44 y(2,3,0) - u(3,2,0) <= -0
MCLin8(3,2,0):  71 y(2,3,0) + v(3,2,0) - u(3,2,0) <= 71
MCLin9(3,2,0):  71 y(2,3,0) - u(3,2,0) >= -0
MCLin10(3,2,0):  -44 y(2,3,0) + v(3,2,0) - u(3,2,0) >= -44
MCLinV(2,3,1):  x(2,1) - v(2,3,1) - x(3,1) = 10
MCLinV(3,2,1):  - x(2,1) - v(3,2,1) + x(3,1) = 8
MCLin1(2,3,1):  u(2,3,1) >= -0
MCLin2(2,3,1):  -71 y(3,2,1) - u(2,3,1) <= -0
MCLin3(2,3,1):  44 y(3,2,1) + v(2,3,1) - u(2,3,1) <= 44
MCLin4(2,3,1):  44 y(3,2,1) - u(2,3,1) >= -0
MCLin5(2,3,1):  -71 y(3,2,1) + v(2,3,1) - u(2,3,1) >= -71
MCLin6(3,2,1):  u(3,2,1) >= -0
MCLin7(3,2,1):  -62 y(2,3,1) - u(3,2,1) <= -0
MCLin8(3,2,1):  53 y(2,3,1) + v(3,2,1) - u(3,2,1) <= 53
MCLin9(3,2,1):  53 y(2,3,1) - u(3,2,1) >= -0
MCLin10(3,2,1):  -62 y(2,3,1) + v(3,2,1) - u(3,2,1) >= -62
MCLinV(2,3,2):  x(2,2) - v(2,3,2) - x(3,2) = 5
MCLinV(3,2,2):  - x(2,2) - v(3,2,2) + x(3,2) = 8
MCLin1(2,3,2):  u(2,3,2) >= -0
MCLin2(2,3,2):  -53 y(3,2,2) - u(2,3,2) <= -0
MCLin3(2,3,2):  62 y(3,2,2) + v(2,3,2) - u(2,3,2) <= 62
MCLin4(2,3,2):  62 y(3,2,2) - u(2,3,2) >= -0
MCLin5(2,3,2):  -53 y(3,2,2) + v(2,3,2) - u(2,3,2) >= -53
MCLin6(3,2,2):  u(3,2,2) >= -0
MCLin7(3,2,2):  -75 y(2,3,2) - u(3,2,2) <= -0
MCLin8(3,2,2):  40 y(2,3,2) + v(3,2,2) - u(3,2,2) <= 40
MCLin9(3,2,2):  40 y(2,3,2) - u(3,2,2) >= -0
MCLin10(3,2,2):  -75 y(2,3,2) + v(3,2,2) - u(3,2,2) >= -75
makespan(0):  C - x(0,0) >= 8
makespan(1):  C - x(1,2) >= 10
makespan(2):  C - x(2,2) >= 8
makespan(3):  C - x(3,0) >= 1
cut_clique_0:  0.03597 x(1,2) + 0.02878 x(2,2) >= 1
cut_clique_1:  0.20000 x(0,1) + 0.07273 x(1,1) >= 1
cut_clique_2:  0.01008 x(1,1) + 0.04706 x(2,1) + 0.05882 x(3,1) >= 1
Bounds
 0 <= C <= 75
 11 <= x(0,0) <= 67
 0 <= y(0,1,0) <= 1
 0 <= y(1,0,0) <= 1
 -54 <= v(0,1,0) <= 56
 -70 <= v(1,0,0) <= 40
 -750 <= u(0,1,0)
 -750 <= u(1,0,0)
 0 <= y(0,2,0) <= 1
 0 <= y(2,0,0) <= 1
 -48 <= v(0,2,0) <= 64
 -75 <= v(2,0,0) <= 37
 -750 <= u(0,2,0)
 -750 <= u(2,0,0)
 0 <= y(0,3,0) <= 1
 0 <= y(3,0,0) <= 1
 -64 <= v(0,3,0) <= 51
 -60 <= v(3,0,0) <= 55
 -750 <= u(0,3,0)
 -750 <= u(3,0,0)
 5 <= x(1,0) <= 59
 0 <= y(1,2,0) <= 1
 0 <= y(2,1,0) <= 1
 -54 <= v(1,2,0) <= 56
 -65 <= v(2,1,0) <= 45
 -750 <= u(1,2,0)
 -750 <= u(2,1,0)
 0 <= y(1,3,0) <= 1
 0 <= y(3,1,0) <= 1
 -70 <= v(1,3,0) <= 43
 -50 <= v(3,1,0) <= 63
 -750 <= u(1,3,0)
 -750 <= u(3,1,0)
 0 <= x(2,0) <= 56
 0 <= y(2,3,0) <= 1
 0 <= y(3,2,0) <= 1
 -75 <= v(2,3,0) <= 40
 -44 <= v(3,2,0) <= 71
 -750 <= u(2,3,0)
 -750 <= u(3,2,0)
 15 <= x(3,0) <= 74
 1 <= x(0,1) <= 57
 0 <= y(0,1,1) <= 1
 0 <= y(1,0,1) <= 1
 -58 <= v(0,1,1) <= 52
 -67 <= v(1,0,1) <= 43
 -750 <= u(0,1,1)
 -750 <= u(1,0,1)
 0 <= y(0,2,1) <= 1
 0 <= y(2,0,1) <= 1
 -66 <= v(0,2,1) <= 46
 -64 <= v(2,0,1) <= 48
 -750 <= u(0,2,1)
 -750 <= u(2,0,1)
 0 <= y(0,3,1) <= 1
 0 <= y(3,0,1) <= 1
 -73 <= v(0,3,1) <= 42
 -62 <= v(3,0,1) <= 53
 -750 <= u(0,3,1)
 -750 <= u(3,0,1)
 0 <= x(1,1) <= 54
 0 <= y(1,2,1) <= 1
 0 <= y(2,1,1) <= 1
 -67 <= v(1,2,1) <= 43
 -56 <= v(2,1,1) <= 54
 -750 <= u(1,2,1)
 -750 <= u(2,1,1)
 0 <= y(1,3,1) <= 1
 0 <= y(3,1,1) <= 1
 -74 <= v(1,3,1) <= 39
 -54 <= v(3,1,1) <= 59
 -750 <= u(1,3,1)
 -750 <= u(3,1,1)
 3 <= x(2,1) <= 59
 0 <= y(2,3,1) <= 1
 0 <= y(3,2,1) <= 1
 -71 <= v(2,3,1) <= 44
 -62 <= v(3,2,1) <= 53
 -750 <= u(2,3,1)
 -750 <= u(3,2,1)
 5 <= x(3,1) <= 64
 0 <= x(0,2) <= 56
 0 <= y(0,1,2) <= 1
 0 <= y(1,0,2) <= 1
 -75 <= v(0,1,2) <= 35
 -46 <= v(1,0,2) <= 64
 -750 <= u(0,1,2)
 -750 <= u(1,0,2)
 0 <= y(0,2,2) <= 1
 0 <= y(2,0,2) <= 1
 -75 <= v(0,2,2) <= 37
 -46 <= v(2,0,2) <= 66
 -750 <= u(0,2,2)
 -750 <= u(2,0,2)
 0 <= y(0,3,2) <= 1
 0 <= y(3,0,2) <= 1
 -64 <= v(0,3,2) <= 51
 -57 <= v(3,0,2) <= 58
 -750 <= u(0,3,2)
 -750 <= u(3,0,2)
 11 <= x(1,2) <= 65
 0 <= y(1,2,2) <= 1
 0 <= y(2,1,2) <= 1
 -64 <= v(1,2,2) <= 46
 -64 <= v(2,1,2) <= 46
 -750 <= u(1,2,2)
 -750 <= u(2,1,2)
 0 <= y(1,3,2) <= 1
 0 <= y(3,1,2) <= 1
 -53 <= v(1,3,2) <= 60
 -75 <= v(3,1,2) <= 38
 -750 <= u(1,3,2)
 -750 <= u(3,1,2)
 11 <= x(2,2) <= 67
 0 <= y(2,3,2) <= 1
 0 <= y(3,2,2) <= 1
 -53 <= v(2,3,2) <= 62
 -75 <= v(3,2,2) <= 40
 -750 <= u(2,3,2)
 -750 <= u(3,2,2)
 0 <= x(3,2) <= 59
Integers
C x(0,0) y(0,1,0) y(1,0,0) v(0,1,0) v(1,0,0) u(0,1,0) u(1,0,0) y(0,2,0) y(2,0,0) 
v(0,2,0) v(2,0,0) u(0,2,0) u(2,0,0) y(0,3,0) y(3,0,0) v(0,3,0) v(3,0,0) u(0,3,0) u(3,0,0) 
x(1,0) y(1,2,0) y(2,1,0) v(1,2,0) v(2,1,0) u(1,2,0) u(2,1,0) y(1,3,0) y(3,1,0) v(1,3,0) 
v(3,1,0) u(1,3,0) u(3,1,0) x(2,0) y(2,3,0) y(3,2,0) v(2,3,0) v(3,2,0) u(2,3,0) u(3,2,0) 
x(3,0) x(0,1) y(0,1,1) y(1,0,1) v(0,1,1) v(1,0,1) u(0,1,1) u(1,0,1) y(0,2,1) y(2,0,1) 
v(0,2,1) v(2,0,1) u(0,2,1) u(2,0,1) y(0,3,1) y(3,0,1) v(0,3,1) v(3,0,1) u(0,3,1) u(3,0,1) 
x(1,1) y(1,2,1) y(2,1,1) v(1,2,1) v(2,1,1) u(1,2,1) u(2,1,1) y(1,3,1) y(3,1,1) v(1,3,1) 
v(3,1,1) u(1,3,1) u(3,1,1) x(2,1) y(2,3,1) y(3,2,1) v(2,3,1) v(3,2,1) u(2,3,1) u(3,2,1) 
x(3,1) x(0,2) y(0,1,2) y(1,0,2) v(0,1,2) v(1,0,2) u(0,1,2) u(1,0,2) y(0,2,2) y(2,0,2) 
v(0,2,2) v(2,0,2) u(0,2,2) u(2,0,2) y(0,3,2) y(3,0,2) v(0,3,2) v(3,0,2) u(0,3,2) u(3,0,2) 
x(1,2) y(1,2,2) y(2,1,2) v(1,2,2) v(2,1,2) u(1,2,2) u(2,1,2) y(1,3,2) y(3,1,2) v(1,3,2) 
v(3,1,2) u(1,3,2) u(3,1,2) x(2,2) y(2,3,2) y(3,2,2) v(2,3,2) v(3,2,2) u(2,3,2) u(3,2,2) 
x(3,2) 
End
